p cnf 15 38
-15 -14 10 0
15 14 -9 0
15 -13 -7 0
-15 -13 2 0
15 9 8 0
15 -8 4 0
-15 -4 3 0
14 -13 -1 0
14 -12 4 0
14 -12 3 0
-14 12 -2 0
-14 -9 4 0
-13 12 -10 0
-13 8 5 0
13 -6 2 0
13 -5 1 0
-13 -3 -2 0
13 3 1 0
12 11 6 0
-12 11 2 0
12 -11 -2 0
-12 5 -1 0
11 -9 -5 0
-11 9 -1 0
11 -7 4 0
11 -7 -3 0
-11 -5 -1 0
10 -9 -8 0
-10 5 -2 0
10 5 1 0
9 8 -7 0
-9 6 -2 0
-9 3 -1 0
-9 2 -1 0
-7 -6 -2 0
-5 3 2 0
5 -3 2 0
4 -2 1 0
